p cnf 66 180
c inputs: 1 2 3 4 5 6
c variables for gates: 7 ... 60
c outputs: 61 62 63 64 65 66
c random input: -1 -2 3 -4 -5 -6
7 -1 -4 0
-7 1 0
-7 4 0
8 -2 -4 0
-8 2 0
-8 4 0
9 -3 -4 0
-9 3 0
-9 4 0
10 -1 -5 0
-10 1 0
-10 5 0
11 -2 -5 0
-11 2 0
-11 5 0
12 -3 -5 0
-12 3 0
-12 5 0
13 -1 -6 0
-13 1 0
-13 6 0
14 -2 -6 0
-14 2 0
-14 6 0
15 -3 -6 0
-15 3 0
-15 6 0
16 -11 -13 0
-16 11 0
-16 13 0
17 -13 11 0
-17 13 0
-17 -11 0
18 -11 13 0
-18 11 0
-18 -13 0
19 17 18 0
-19 -17 0
-19 -18 0
20 -14 -16 0
-20 14 0
-20 16 0
21 14 -16 0
-21 -14 0
-21 16 0
22 -14 16 0
-22 14 0
-22 -16 0
23 21 22 0
-23 -21 0
-23 -22 0
24 -8 10 0
-24 8 0
-24 -10 0
25 -10 8 0
-25 10 0
-25 -8 0
26 25 24 0
-26 -25 0
-26 -24 0
27 -8 -10 0
-27 8 0
-27 10 0
28 -9 -19 0
-28 9 0
-28 19 0
29 9 19 0
-29 -9 0
-29 -19 0
30 28 29 0
-30 -28 0
-30 -29 0
31 -27 -30 0
-31 27 0
-31 30 0
32 27 30 0
-32 -27 0
-32 -30 0
33 31 32 0
-33 -31 0
-33 -32 0
34 -9 -27 0
-34 9 0
-34 27 0
35 -27 19 0
-35 27 0
-35 -19 0
36 -9 19 0
-36 9 0
-36 -19 0
37 36 35 0
-37 -36 0
-37 -35 0
38 34 -37 0
-38 -34 0
-38 37 0
39 -12 -23 0
-39 12 0
-39 23 0
40 12 23 0
-40 -12 0
-40 -23 0
41 40 39 0
-41 -40 0
-41 -39 0
42 38 -41 0
-42 -38 0
-42 41 0
43 -38 41 0
-43 38 0
-43 -41 0
44 43 42 0
-44 -43 0
-44 -42 0
45 -12 38 0
-45 12 0
-45 -38 0
46 23 38 0
-46 -23 0
-46 -38 0
47 -12 23 0
-47 12 0
-47 -23 0
48 47 46 0
-48 -47 0
-48 -46 0
49 45 -48 0
-49 -45 0
-49 48 0
50 -15 20 0
-50 15 0
-50 -20 0
51 15 -20 0
-51 -15 0
-51 20 0
52 50 51 0
-52 -50 0
-52 -51 0
53 -52 49 0
-53 52 0
-53 -49 0
54 52 -49 0
-54 -52 0
-54 49 0
55 53 54 0
-55 -53 0
-55 -54 0
56 -15 49 0
-56 15 0
-56 -49 0
57 -20 49 0
-57 20 0
-57 -49 0
58 -15 -20 0
-58 15 0
-58 20 0
59 58 57 0
-59 -58 0
-59 -57 0
60 56 -59 0
-60 -56 0
-60 59 0
-61 7 0
61 -7 0
-62 -26 0
62 26 0
-63 -33 0
63 33 0
-64 -44 0
64 44 0
-65 -55 0
65 55 0
-66 -60 0
66 60 0
-61 0
-62 0
-63 0
-64 0
-65 0
-66 0
